
Gurobi 11.0.3 (linux64) logging started Tue Apr 14 12:51:29 2026

Set parameter LogFile to value "tree/results/nwth/nwth_depth-3_run-4/Full MIP/LogFile_FullModel.txt"
Gurobi Optimizer version 11.0.3 build v11.0.3rc0 (linux64 - "CentOS Linux 7 (Core)")

CPU model: Intel(R) Xeon(R) Platinum 8260 CPU @ 2.40GHz, instruction set [SSE2|AVX|AVX2|AVX512]
Thread count: 96 physical cores, 192 logical processors, using up to 32 threads

Optimize a model with 13024 rows, 9142 columns and 87538 nonzeros
Model fingerprint: 0xbeac3a6b
Model has 1288 general constraints
Variable types: 5254 continuous, 3888 integer (3888 binary)
Coefficient statistics:
  Matrix range     [5e-03, 1e+04]
  Objective range  [6e-03, 1e+04]
  Bounds range     [9e-01, 7e+02]
  RHS range        [1e-04, 1e+03]

User MIP start produced solution with objective -8699.03 (0.04s)
Loaded user MIP start with objective -8699.03

Presolve added 1280 rows and 3864 columns
Presolve time: 0.17s
Presolved: 14304 rows, 13006 columns, 95242 nonzeros
Presolved model has 3864 SOS constraint(s)
Variable types: 5254 continuous, 7752 integer (7752 binary)

Root relaxation: objective 1.000000e+00, 3658 iterations, 0.87 seconds (1.13 work units)

    Nodes    |    Current Node    |     Objective Bounds      |     Work
 Expl Unexpl |  Obj  Depth IntInf | Incumbent    BestBd   Gap | It/Node Time

     0     0    1.00000    0    9 -8699.0311    1.00000   100%     -    1s
     0     2    1.00000    0    9 -8699.0311    1.00000   100%     -    2s
     7    16    1.00000    3    7 -8699.0311    1.00000   100%   788    6s
    31    64    1.00000    5    8 -8699.0311    1.00000   100%   987   12s
H   35    64                    -8699.031054    1.00000   100%   880   12s
H   46    64                       0.3167702    1.00000   216%   697   12s
    63    96    1.00000    6    8    0.31677    1.00000   216%   543   17s
    95   128    1.00000    7   42    0.31677    1.00000   216%   390   20s
H  100   128                       0.3229814    1.00000   210%   373   20s
   127   160    1.00000    8   69    0.32298    1.00000   210%   308   25s
   191   224    1.00000   10  843    0.32298    1.00000   210%   231   35s
H  194   224                       0.3291925    1.00000   204%   246   35s
   223   424    1.00000   11  867    0.32919    1.00000   204%   720   49s
   423   840    1.00000   12  895    0.32919    1.00000   204%   445   59s
   839  1368    1.00000   20  956    0.32919    1.00000   204%   810  113s
  1367  4090    1.00000   21  941    0.32919    1.00000   204%   631  181s
H 1732  4090                       0.9440994    1.00000  5.92%   715  181s
H 4133  6630                       0.9503106    1.00000  5.23%   631  247s
H 4546  6630                       0.9875776    1.00000  1.26%   644  247s
  6871  8909    1.00000   31  992    0.98758    1.00000  1.26%   576  315s
H 7088  8909                       0.9937888    1.00000  0.63%   582  315s
  9679 11354    1.00000   32  913    0.99379    1.00000  0.63%   536  377s
 12723 14531    1.00000   32  686    0.99379    1.00000  0.63%   513  414s
 16467 14532    1.00000  113    9    0.99379    1.00000  0.63%   491  417s
 16469 14533    1.00000   60   17    0.99379    1.00000  0.63%   491  420s
 16477 14548    1.00000   14  427    0.99379    1.00000  0.63%   492  425s
 16565 14630    1.00000   17   67    0.99379    1.00000  0.63%   490  432s
 16597 14652    1.00000   18   86    0.99379    1.00000  0.63%   491  448s
 16629 14673    1.00000   18   85    0.99379    1.00000  0.63%   490  485s
 16661 14694    1.00000   19   97    0.99379    1.00000  0.63%   489  494s
H16674 13963                       1.0000000    1.00000  0.00%   490  494s

Explored 16693 nodes (8274297 simplex iterations) in 494.45 seconds (841.37 work units)
Thread count was 32 (of 192 available processors)

Solution count 10: 1 0.993789 0.987578 ... -8699.03

Optimal solution found (tolerance 1.00e-04)
Best objective 1.000000000000e+00, best bound 1.000000000000e+00, gap 0.0000%

User-callback calls 176678, time in user-callback 1.23 sec
